sat
(:added-eqs                   463
 :arith-eq-adapter            114
 :arith-bound-propagations-lp 99
 :arith-conflicts             2
 :arith-diseq                 6
 :arith-fixed-eqs             54
 :arith-gcd-calls             1
 :arith-grobner-calls         2
 :arith-horner-calls          1
 :arith-lower                 162
 :arith-make-feasible         21
 :arith-max-columns           562
 :arith-max-rows              159
 :arith-nla-add-bounds        2
 :arith-nla-propagate-bounds  2
 :arith-nla-propagate-eq      124
 :arith-offset-eqs            1
 :arith-patches               1
 :arith-patches-success       1
 :arith-upper                 189
 :binary-propagations         271
 :decisions                   70
 :del-clause                  11
 :final-checks                4
 :max-memory                  55.90
 :memory                      18.20
 :mk-bool-var                 669
 :mk-clause                   223
 :mk-clause-binary            5324
 :num-allocs                  5089638
 :num-checks                  1
 :propagations                321
 :rlimit-count                49382
 :sls-ddfw-flips              443.00
 :sls-ddfw-shifts             28.00
 :solve-eqs-elim-vars         170
 :solve-eqs-steps             1052
 :time                        0.07
 :total-time                  0.04)
